\* Problem: Unknown *\

Maximize
 obj: + 100000 r4_volGoal + 100000 r5_volGoal + 100000 r6_volGoal
 + 100000 r7_volGoal + 100000 r8_volGoal + 100000 r9_volGoal

Subject To
 r_0: + r4_volGoal + r4_z1_j3 <= 69.4804840190445
 r_1: + r5_volGoal + r5_z1_j3 <= 69.4804840190445
 r_2: - r5_z1_j3 - r4_z1_j3 + j3_r9 = 0
 r_3: + r4_volGoal <= 68.44
 r_4: + r5_volGoal <= 68.44
 r_5: + r6_volGoal <= 68.44
 r_6: + r7_volGoal <= 68.44
 r_7: + r8_volGoal <= 68.44
 r_8: + r9_volGoal <= 2.68

End
